data/CVRPLIB/Vrp-Set-XML100/instances/XML100_1312_05.vrp
NAME : XML100_1312_05
COMMENT : Generated by Queiroga, Sadykov, Uchoa, and Vidal (2021)
TYPE : CVRP
DIMENSION : 101
EDGE_WEIGHT_TYPE : EUC_2D
CAPACITY : 5
NODE_COORD_SECTION
1    78   946 
2    673  501 
3    305  871 
4    289  497 
5    356  23  
6    299  143 
7    67   666 
8    363  172 
9    140  660 
10   796  393 
11   579  382 
12   332  4   
13   828  26  
14   192  675 
15   541  965 
16   361  103 
17   543  797 
18   74   882 
19   717  434 
20   909  787 
21   316  44  
22   839  823 
23   853  700 
24   733  364 
25   109  798 
26   219  703 
27   700  792 
28   970  927 
29   730  756 
30   764  919 
31   894  822 
32   348  65  
33   298  619 
34   270  55  
35   749  851 
36   854  846 
37   425  74  
38   192  682 
39   804  93  
40   425  987 
41   846  831 
42   684  876 
43   199  868 
44   219  456 
45   731  457 
46   717  405 
47   924  50  
48   155  914 
49   703  474 
50   747  460 
51   155  57  
52   129  401 
53   795  360 
54   491  402 
55   962  782 
56   357  503 
57   410  982 
58   333  839 
59   193  789 
60   708  648 
61   590  326 
62   286  380 
63   664  547 
64   88   694 
65   257  221 
66   752  587 
67   7    30  
68   786  786 
69   708  886 
70   191  953 
71   327  28  
72   995  956 
73   766  473 
74   133  695 
75   438  483 
76   739  738 
77   5    6   
78   847  961 
79   830  145 
80   704  448 
81   300  30  
82   714  456 
83   69   831 
84   638  495 
85   670  374 
86   886  178 
87   272  442 
88   651  686 
89   177  58  
90   168  635 
91   810  950 
92   288  942 
93   249  39  
94   316  161 
95   206  828 
96   80   778 
97   252  714 
98   540  0   
99   728  683 
100  633  553 
101  208  487 
DEMAND_SECTION
1    0   
2    1   
3    1   
4    1   
5    1   
6    1   
7    1   
8    1   
9    1   
10   1   
11   1   
12   1   
13   1   
14   1   
15   1   
16   1   
17   1   
18   1   
19   1   
20   1   
21   1   
22   1   
23   1   
24   1   
25   1   
26   1   
27   1   
28   1   
29   1   
30   1   
31   1   
32   1   
33   1   
34   1   
35   1   
36   1   
37   1   
38   1   
39   1   
40   1   
41   1   
42   1   
43   1   
44   1   
45   1   
46   1   
47   1   
48   1   
49   1   
50   1   
51   1   
52   1   
53   1   
54   1   
55   1   
56   1   
57   1   
58   1   
59   1   
60   1   
61   1   
62   1   
63   1   
64   1   
65   1   
66   1   
67   1   
68   1   
69   1   
70   1   
71   1   
72   1   
73   1   
74   1   
75   1   
76   1   
77   1   
78   1   
79   1   
80   1   
81   1   
82   1   
83   1   
84   1   
85   1   
86   1   
87   1   
88   1   
89   1   
90   1   
91   1   
92   1   
93   1   
94   1   
95   1   
96   1   
97   1   
98   1   
99   1   
100  1   
101  1   
DEPOT_SECTION
1
-1
EOF
