data/CVRPLIB/Vrp-Set-XML100/solutions/XML100_1312_05.sol
Route #1: 90 77 71 27 29
Route #2: 41 68 34 26 16
Route #3: 66 76 50 88 92
Route #4: 83 79 18 81 48
Route #5: 36 97 4 31 15
Route #6: 1 44 49 72 65
Route #7: 55 53 60 10 74
Route #8: 17 58 94 42 47
Route #9: 84 23 52 9 45
Route #10: 7 93 5 64 51
Route #11: 3 86 61 43 100
Route #12: 78 38 12 46 85
Route #13: 75 22 54 19 30
Route #14: 73 8 89 13 37
Route #15: 20 70 11 80 33
Route #16: 24 63 6 95 82
Route #17: 91 14 39 56 69
Route #18: 35 40 21 67 28
Route #19: 2 57 32 96 25
Route #20: 99 62 59 98 87
Cost 30655
